============================[ Problem Statistics ]=============================|                                                                             ||  Number of variables:          4242                                         ||  Number of clauses:           10139                                         ||  Parse time:                   0.53 s                                       ||                                                                             |============================[ Search Statistics ]==============================| Conflicts |          ORIGINAL         |          LEARNT          | Progress ||           |    Vars  Clauses Literals |    Limit  Clauses Lit/Cl |          |===============================================================================|       100 |    1591     6344   840705 |     2326      100     53 | 62.501 % ||       250 |    1591     6344   840705 |     2558      250     75 | 62.495 % |===============================================================================restarts              : 3conflicts             : 294            (370 /sec)decisions             : 559            (0.00 % random) (703 /sec)propagations          : 11840          (14893 /sec)conflict literals     : 23086          (94.76 % deleted)CPU time              : 0.795 sSATISFIABLE